15
1 0 13
2 0 3
2 1 8
3 0 2
3 1 10
3 2 8
4 0 7
4 1 2
4 2 12
4 3 1
5 0 10
5 1 2
5 2 12
5 3 13
5 4 10
6 0 12
6 1 8
6 2 5
6 3 3
6 4 2
6 5 8
7 0 9
7 1 12
7 2 4
7 3 10
7 4 7
7 5 1
7 6 4
8 0 2
8 1 1
8 2 13
8 3 6
8 4 4
8 5 12
8 6 9
8 7 12
9 0 6
9 1 3
9 2 4
9 3 8
9 4 3
9 5 4
9 6 10
9 7 3
9 8 10
10 0 10
10 1 13
10 2 11
10 3 1
10 4 6
10 5 10
10 6 13
10 7 11
10 8 8
10 9 10
11 0 10
11 1 6
11 2 3
11 3 4
11 4 13
11 5 7
11 6 11
11 7 7
11 8 5
11 9 9
11 10 2
12 0 7
12 1 8
12 2 9
12 3 3
12 4 9
12 5 12
12 6 11
12 7 3
12 8 2
12 9 7
12 10 1
12 11 1
13 0 6
13 1 10
13 2 13
13 3 10
13 4 1
13 5 10
13 6 11
13 7 4
13 8 8
13 9 4
13 10 12
13 11 1
13 12 5
14 0 12
14 1 3
14 2 6
14 3 12
14 4 2
14 5 5
14 6 6
14 7 10
14 8 10
14 9 5
14 10 7
14 11 9
14 12 13
14 13 6
